4HSiC                                   
   1.00000000000000     
     9.2027139663999993    0.0000000000000000    0.0000000000000000
     0.0000000000000000   10.6263799667000001    0.0000000000000000
     0.0000000000000000    0.0000000000000000   10.0377988815000005
   Si   C 
    47    48
Direct
  0.1663661398321067  0.0829397396722237  0.4373973995693022
  0.1684037528008465  0.5862728129097305  0.4356110656600373
  0.5000000000000000  0.0825867080135551  0.4376622441633188
  0.8336338451678884  0.0829397396722237  0.4373973995693022
  0.8315962321991486  0.5862728129097305  0.4356110656600373
 -0.0000000000000000  0.3335040272790706  0.4372039657406961
 -0.0000000000000000  0.8337156229388653  0.4375724310237842
  0.3347764730956017  0.3328938609565513  0.4363807601735784
  0.3329538129108052  0.8321105630265800  0.4371008327509213
  0.6652235569044009  0.3328938609565513  0.4363807601735784
  0.6670462170891973  0.8321105630265800  0.4371008327509213
  0.1662995781515614  0.4163646505766791  0.9383001983370076
  0.1666990712713827  0.9167246498573315  0.9376319560447076
  0.5000000000000000  0.4167221896899406  0.9386502888984816
  0.5000000000000000  0.9169651869513941  0.9384804091754054
  0.8337004068484341  0.4163646505766791  0.9383001983370076
  0.8333009137286125  0.9167246498573315  0.9376319560447076
 -0.0000000000000000  0.1665740587436508  0.9375856133952524
 -0.0000000000000000  0.6667357916889132  0.9377055199598177
  0.3332646117187135  0.1665965243270860  0.9376438215739195
  0.3334541949709220  0.6666137455804982  0.9388507691555179
  0.6667354182812890  0.1665965243270860  0.9376438215739195
  0.6665458350290804  0.6666137455804982  0.9388507691555179
 -0.0000000000000000 -0.0000864835878536  0.1875574597032255
 -0.0000000000000000  0.5001902373926935  0.1878354683225894
  0.3331186742055089  0.0000037394324388  0.1879671477692940
  0.3328342885914319  0.4994026732688764  0.1897692685606738
  0.6668813557944936  0.0000037394324388  0.1879671477692940
  0.6671657414085704  0.4994026732688764  0.1897692685606738
  0.1664687720977228  0.2496781023672577  0.1877538955334739
  0.1666639629607568  0.7503040276394511  0.1873642603340088
  0.5000000000000000  0.2496507722675810  0.1874711597484284
  0.5000000000000000  0.7504094701370445  0.1904221363809548
  0.8335312129022726  0.2496781023672577  0.1877538955334739
  0.8333360220392384  0.7503040276394511  0.1873642603340088
 -0.0000000000000000 -0.0000252509728739  0.6877289024783121
 -0.0000000000000000  0.5003670683607931  0.6878683974737646
  0.3335040870842663 -0.0001999343255380  0.6876736642185308
  0.3345437913732470  0.5010797317524112  0.6888164918875237
  0.6664959429157361 -0.0001999343255380  0.6876736642185308
  0.6654562386267555  0.5010797317524112  0.6888164918875237
  0.1666316507727080  0.2501433696849000  0.6875355950708862
  0.1668531389338858  0.7500365830798393  0.6879840075190558
  0.5000000000000000  0.2500601162831490  0.6878194829139522
  0.5000000000000000  0.7489848238847747  0.6885811834653019
  0.8333683342272871  0.2501433696849000  0.6875355950708862
  0.8331468460661093  0.7500365830798393  0.6879840075190558
  0.1663553119608955  0.0832219887017111  0.2496558065340982
  0.1661956821455653  0.5837696424175721  0.2491305661166599
  0.5000000000000000  0.0831208861029366  0.2496806810111622
  0.5000000000000000  0.5826862240145649  0.2359780664984716
  0.8336446730390997  0.0832219887017111  0.2496558065340982
  0.8338043028544299  0.5837696424175721  0.2491305661166599
 -0.0000000000000000  0.3334771235094245  0.2494310629020028
 -0.0000000000000000  0.8334116042002055  0.2496277643249130
  0.3331270187574282  0.3324261217604239  0.2494241625598678
  0.3327078421813105  0.8336503243096464  0.2497881963654116
  0.6668730112425743  0.3324261217604239  0.2494241625598678
  0.6672921878186917  0.8336503243096464  0.2497881963654116
  0.1659170733100682  0.4163982502138516  0.7504159950594971
  0.1666695160955899  0.9167357248248182  0.7496915918417864
  0.5000000000000000  0.4165929486458344  0.7503450839946272
  0.5000000000000000  0.9171468894427012  0.7508261136930245
  0.8340829116899271  0.4163982502138516  0.7504159950594971
  0.8333304689044054  0.9167357248248182  0.7496915918417864
 -0.0000000000000000  0.1666377627183560  0.7495432545931454
 -0.0000000000000000  0.6668554030762605  0.7497023553383302
  0.3332433041689426  0.1667392322754758  0.7495857552277579
  0.3331674410115950  0.6668675157075385  0.7508541971334208
  0.6667567258310598  0.1667392322754758  0.7495857552277579
  0.6668325889884075  0.6668675157075385  0.7508541971334208
 -0.0000000000000000 -0.0000107208497548  0.0001232240814626
 -0.0000000000000000  0.5001476753653066  0.0005449952675660
  0.3330775055064835  0.0001479578717435  0.0005472166943056
  0.3327107574288728  0.4995639073903731  0.0005674580040149
  0.6669225244935189  0.0001479578717435  0.0005472166943056
  0.6672892725711294  0.4995639073903731  0.0005674580040149
  0.1665189595260657  0.2497071682349460  0.0003977858874741
  0.1665020303563906  0.7501797631661392  0.0002532191332920
  0.5000000000000000  0.2498023688559321  0.0001913453779289
  0.5000000000000000  0.7504097499622121  0.0010728373645148
  0.8334810254739294  0.2497071682349460  0.0003977858874741
  0.8334979546436045  0.7501797631661392  0.0002532191332920
 -0.0000000000000000 -0.0001160717878451  0.5003988416955921
 -0.0000000000000000  0.5001004587044628  0.5003032942057826
  0.3328822082560106  0.0002729806501788  0.5002551514223678
  0.3179611811596801  0.4928765748759371  0.5057671917350209
  0.6671178217439921  0.0002729806501788  0.5002551514223678
  0.6820388488403223  0.4928765748759371  0.5057671917350209
  0.1660455084550163  0.2494520036592345  0.5001831752961741
  0.1661566464468349  0.7507492712370515  0.5005397745387650
  0.5000000000000000  0.2494186734530004  0.5003839499796421
  0.5000000000000000  0.7631798734104213  0.5061990248588064
  0.8339544765449788  0.2494520036592345  0.5001831752961741
  0.8338433385531603  0.7507492712370515  0.5005397745387650
 
  0.00000000E+00  0.00000000E+00  0.00000000E+00
  0.00000000E+00  0.00000000E+00  0.00000000E+00
  0.00000000E+00  0.00000000E+00  0.00000000E+00
  0.00000000E+00  0.00000000E+00  0.00000000E+00
  0.00000000E+00  0.00000000E+00  0.00000000E+00
  0.00000000E+00  0.00000000E+00  0.00000000E+00
  0.00000000E+00  0.00000000E+00  0.00000000E+00
  0.00000000E+00  0.00000000E+00  0.00000000E+00
  0.00000000E+00  0.00000000E+00  0.00000000E+00
  0.00000000E+00  0.00000000E+00  0.00000000E+00
  0.00000000E+00  0.00000000E+00  0.00000000E+00
  0.00000000E+00  0.00000000E+00  0.00000000E+00
  0.00000000E+00  0.00000000E+00  0.00000000E+00
  0.00000000E+00  0.00000000E+00  0.00000000E+00
  0.00000000E+00  0.00000000E+00  0.00000000E+00
  0.00000000E+00  0.00000000E+00  0.00000000E+00
  0.00000000E+00  0.00000000E+00  0.00000000E+00
  0.00000000E+00  0.00000000E+00  0.00000000E+00
  0.00000000E+00  0.00000000E+00  0.00000000E+00
  0.00000000E+00  0.00000000E+00  0.00000000E+00
  0.00000000E+00  0.00000000E+00  0.00000000E+00
  0.00000000E+00  0.00000000E+00  0.00000000E+00
  0.00000000E+00  0.00000000E+00  0.00000000E+00
  0.00000000E+00  0.00000000E+00  0.00000000E+00
  0.00000000E+00  0.00000000E+00  0.00000000E+00
  0.00000000E+00  0.00000000E+00  0.00000000E+00
  0.00000000E+00  0.00000000E+00  0.00000000E+00
  0.00000000E+00  0.00000000E+00  0.00000000E+00
  0.00000000E+00  0.00000000E+00  0.00000000E+00
  0.00000000E+00  0.00000000E+00  0.00000000E+00
  0.00000000E+00  0.00000000E+00  0.00000000E+00
  0.00000000E+00  0.00000000E+00  0.00000000E+00
  0.00000000E+00  0.00000000E+00  0.00000000E+00
  0.00000000E+00  0.00000000E+00  0.00000000E+00
  0.00000000E+00  0.00000000E+00  0.00000000E+00
  0.00000000E+00  0.00000000E+00  0.00000000E+00
  0.00000000E+00  0.00000000E+00  0.00000000E+00
  0.00000000E+00  0.00000000E+00  0.00000000E+00
  0.00000000E+00  0.00000000E+00  0.00000000E+00
  0.00000000E+00  0.00000000E+00  0.00000000E+00
  0.00000000E+00  0.00000000E+00  0.00000000E+00
  0.00000000E+00  0.00000000E+00  0.00000000E+00
  0.00000000E+00  0.00000000E+00  0.00000000E+00
  0.00000000E+00  0.00000000E+00  0.00000000E+00
  0.00000000E+00  0.00000000E+00  0.00000000E+00
  0.00000000E+00  0.00000000E+00  0.00000000E+00
  0.00000000E+00  0.00000000E+00  0.00000000E+00
  0.00000000E+00  0.00000000E+00  0.00000000E+00
  0.00000000E+00  0.00000000E+00  0.00000000E+00
  0.00000000E+00  0.00000000E+00  0.00000000E+00
  0.00000000E+00  0.00000000E+00  0.00000000E+00
  0.00000000E+00  0.00000000E+00  0.00000000E+00
  0.00000000E+00  0.00000000E+00  0.00000000E+00
  0.00000000E+00  0.00000000E+00  0.00000000E+00
  0.00000000E+00  0.00000000E+00  0.00000000E+00
  0.00000000E+00  0.00000000E+00  0.00000000E+00
  0.00000000E+00  0.00000000E+00  0.00000000E+00
  0.00000000E+00  0.00000000E+00  0.00000000E+00
  0.00000000E+00  0.00000000E+00  0.00000000E+00
  0.00000000E+00  0.00000000E+00  0.00000000E+00
  0.00000000E+00  0.00000000E+00  0.00000000E+00
  0.00000000E+00  0.00000000E+00  0.00000000E+00
  0.00000000E+00  0.00000000E+00  0.00000000E+00
  0.00000000E+00  0.00000000E+00  0.00000000E+00
  0.00000000E+00  0.00000000E+00  0.00000000E+00
  0.00000000E+00  0.00000000E+00  0.00000000E+00
  0.00000000E+00  0.00000000E+00  0.00000000E+00
  0.00000000E+00  0.00000000E+00  0.00000000E+00
  0.00000000E+00  0.00000000E+00  0.00000000E+00
  0.00000000E+00  0.00000000E+00  0.00000000E+00
  0.00000000E+00  0.00000000E+00  0.00000000E+00
  0.00000000E+00  0.00000000E+00  0.00000000E+00
  0.00000000E+00  0.00000000E+00  0.00000000E+00
  0.00000000E+00  0.00000000E+00  0.00000000E+00
  0.00000000E+00  0.00000000E+00  0.00000000E+00
  0.00000000E+00  0.00000000E+00  0.00000000E+00
  0.00000000E+00  0.00000000E+00  0.00000000E+00
  0.00000000E+00  0.00000000E+00  0.00000000E+00
  0.00000000E+00  0.00000000E+00  0.00000000E+00
  0.00000000E+00  0.00000000E+00  0.00000000E+00
  0.00000000E+00  0.00000000E+00  0.00000000E+00
  0.00000000E+00  0.00000000E+00  0.00000000E+00
  0.00000000E+00  0.00000000E+00  0.00000000E+00
  0.00000000E+00  0.00000000E+00  0.00000000E+00
  0.00000000E+00  0.00000000E+00  0.00000000E+00
  0.00000000E+00  0.00000000E+00  0.00000000E+00
  0.00000000E+00  0.00000000E+00  0.00000000E+00
  0.00000000E+00  0.00000000E+00  0.00000000E+00
  0.00000000E+00  0.00000000E+00  0.00000000E+00
  0.00000000E+00  0.00000000E+00  0.00000000E+00
  0.00000000E+00  0.00000000E+00  0.00000000E+00
  0.00000000E+00  0.00000000E+00  0.00000000E+00
  0.00000000E+00  0.00000000E+00  0.00000000E+00
  0.00000000E+00  0.00000000E+00  0.00000000E+00
  0.00000000E+00  0.00000000E+00  0.00000000E+00
