4HSiC                                   
   1.00000000000000     
     9.2027139663999993    0.0000000000000000    0.0000000000000000
     0.0000000000000000   10.6263799667000001    0.0000000000000000
     0.0000000000000000    0.0000000000000000   10.0377988815000005
   Si   C 
    47    47
Direct
  0.1666666719999981  0.0823216377257902  0.4376850742119924
  0.1666666719999981  0.5854111728128123  0.4367428743225480
  0.5012716109583463  0.0835597368323873  0.4378957951583024
  0.5006181783601935  0.5824597107548862  0.4349442624290953
  0.8320617020416509  0.0835597368323873  0.4378957951583024
  0.8327151346398036  0.5824597107548862  0.4349442624290953
  0.0004588460073503  0.3322589865926182  0.4377714026405237
  0.9990354497884830  0.8323190665405197  0.4375051561710409
  0.3328744969926493  0.3322589865926182  0.4377714026405237
  0.3342978932115166  0.8323190665405197  0.4375051561710409
  0.6666666870000029  0.3333906370435749  0.4350427949187057
  0.6666666870000029  0.8331617002224622  0.4380853906010178
  0.1666666719999981  0.4173398025423016  0.9375378641795148
  0.1666666719999981  0.9173442064670601  0.9378371492556636
  0.5003899667135845  0.4172984674221024  0.9364657823124671
  0.5001319844060432  0.9160799163904481  0.9375425539965022
  0.8329433462864126  0.4172984674221024  0.9364657823124671
  0.8332013285939539  0.9160799163904481  0.9375425539965022
  0.9992784521601636  0.1673962707885402  0.9374420054216156
  0.9998404182879416  0.6667518802560460  0.9383987696742334
  0.3340548908398360  0.1673962707885402  0.9374420054216156
  0.3334929247120580  0.6667518802560460  0.9383987696742334
  0.6666666870000029  0.1670390149993583  0.9382300279844729
  0.6666666870000029  0.6660761273542450  0.9366632639415320
  0.9998041785708557 -0.0002008323732301  0.1873462550573693
  0.0004211443634444  0.4994026460729142  0.1873144644277882
  0.3335291644291439 -0.0002008323732301  0.1873462550573693
  0.3329121986365552  0.4994026460729142  0.1873144644277882
  0.6666666870000029 -0.0001884912691039  0.1871061310290596
  0.6666666870000029  0.4997447071739199  0.1852910087993214
  0.1666666719999981  0.2494586127294048  0.1868082539539854
  0.1666666719999981  0.7499782135075611  0.1869832778562467
  0.4994361886023816  0.2495162133570591  0.1873593535022351
  0.5001721024322417  0.7502362009969867  0.1872617102401585
  0.8338971243976157  0.2495162133570591  0.1873593535022351
  0.8331612105677554  0.7502362009969867  0.1872617102401585
  0.9997852192298226  0.0000902913744183  0.6880154918877367
  0.9965223129622883  0.5013260378602566  0.6890891196635868
  0.3335481237701772  0.0000902913744183  0.6880154918877367
  0.3368110300377114  0.5013260378602566  0.6890891196635868
  0.6666666870000029  0.9995363042826827  0.6888731003264518
  0.1666666719999981  0.2504485943153323  0.6885766118539856
  0.1666666719999981  0.7506929867314066  0.6887428367625810
  0.5017734023351903  0.2523603375184170  0.6891572329463154
  0.5008873788373944  0.7476598983815756  0.6889876409516581
  0.8315599106648068  0.2523603375184170  0.6891572329463154
  0.8324459341626027  0.7476598983815756  0.6889876409516581
  0.1666666719999981  0.0825296530826136  0.2493601658882401
  0.1666666719999981  0.5830766661150498  0.2498195047213837
  0.5002076796948325  0.0827431262930801  0.2499494245386450
  0.5004514225744170  0.5826025207565415  0.2492457311975121
  0.8331256333051646  0.0827431262930801  0.2499494245386450
  0.8328818904255801  0.5826025207565415  0.2492457311975121
  0.0002118326025670  0.3325643181564676  0.2496916617402381
  0.9999286498127304  0.8325864080778916  0.2497417805393454
  0.3331215103974325  0.3325643181564676  0.2496916617402381
  0.3334046931872691  0.8325864080778916  0.2497417805393454
  0.6666666870000029  0.3332979839773276  0.2493748272710151
  0.6666666870000029  0.8327548525009415  0.2498633436828721
  0.1666666719999981  0.4180922140952617  0.7487776746260858
  0.1666666719999981  0.9176658722842369  0.7491787045019455
  0.4894549994658026  0.4121854768656433  0.7544035603730225
  0.4991706322016266  0.9168891035334921  0.7489569230599958
  0.8438783135341945  0.4121854768656433  0.7544035603730225
  0.8341626807983704  0.9168891035334921  0.7489569230599958
  0.9993901552293203  0.1668478324201921  0.7487399068624122
  0.0008162054750574  0.6678990402565230  0.7497522660551480
  0.3339431877706793  0.1668478324201921  0.7487399068624122
  0.3325171375249423  0.6678990402565230  0.7497522660551480
  0.6666666870000029  0.1665224103055298  0.7498591412314070
  0.6666666870000029  0.6791960835001486  0.7548781087777713
  0.9996765890610019  0.0001380018183233  0.0003045787863154
  0.9999054075102956  0.5003092005191554  0.0013863678196217
  0.3336567539389976  0.0001380018183233  0.0003045787863154
  0.3334279354897043  0.5003092005191554  0.0013863678196217
  0.6666666870000029  0.9996188903265384  0.0001686649398594
  0.6666666870000029  0.4998491368607880  0.0002579125045604
  0.1666666719999981  0.2500679770912242  0.9998310818483432
  0.1666666719999981  0.7503383511928161  0.0003209117728967
  0.5005237113826557  0.2501732254889585  0.0013406297651223
  0.4998748922717002  0.7494820556736310  0.0012647478248279
  0.8328096016173414  0.2501732254889585  0.0013406297651223
  0.8334584207282969  0.7494820556736310  0.0012647478248279
  0.9983899409945131  0.0001562290835530  0.5004422567842216
  0.9972955012889416  0.4988332391769473  0.5009846954350131
  0.3349434020054866  0.0001562290835530  0.5004422567842216
  0.3360378417110580  0.4988332391769473  0.5009846954350131
  0.6666666870000029  0.0000583042709294  0.5011265122418987
  0.1666666719999981  0.2491667050428220  0.5006723573036664
  0.1666666719999981  0.7509959467887878  0.5010209655122608
  0.5015185153677780  0.2531620593904610  0.5008896720769747
  0.5022803641305454  0.7474198006862998  0.5008729977502941
  0.8318147976322191  0.2531620593904610  0.5008896720769747
  0.8310529488694517  0.7474198006862998  0.5008729977502941
 
  0.00000000E+00  0.00000000E+00  0.00000000E+00
  0.00000000E+00  0.00000000E+00  0.00000000E+00
  0.00000000E+00  0.00000000E+00  0.00000000E+00
  0.00000000E+00  0.00000000E+00  0.00000000E+00
  0.00000000E+00  0.00000000E+00  0.00000000E+00
  0.00000000E+00  0.00000000E+00  0.00000000E+00
  0.00000000E+00  0.00000000E+00  0.00000000E+00
  0.00000000E+00  0.00000000E+00  0.00000000E+00
  0.00000000E+00  0.00000000E+00  0.00000000E+00
  0.00000000E+00  0.00000000E+00  0.00000000E+00
  0.00000000E+00  0.00000000E+00  0.00000000E+00
  0.00000000E+00  0.00000000E+00  0.00000000E+00
  0.00000000E+00  0.00000000E+00  0.00000000E+00
  0.00000000E+00  0.00000000E+00  0.00000000E+00
  0.00000000E+00  0.00000000E+00  0.00000000E+00
  0.00000000E+00  0.00000000E+00  0.00000000E+00
  0.00000000E+00  0.00000000E+00  0.00000000E+00
  0.00000000E+00  0.00000000E+00  0.00000000E+00
  0.00000000E+00  0.00000000E+00  0.00000000E+00
  0.00000000E+00  0.00000000E+00  0.00000000E+00
  0.00000000E+00  0.00000000E+00  0.00000000E+00
  0.00000000E+00  0.00000000E+00  0.00000000E+00
  0.00000000E+00  0.00000000E+00  0.00000000E+00
  0.00000000E+00  0.00000000E+00  0.00000000E+00
  0.00000000E+00  0.00000000E+00  0.00000000E+00
  0.00000000E+00  0.00000000E+00  0.00000000E+00
  0.00000000E+00  0.00000000E+00  0.00000000E+00
  0.00000000E+00  0.00000000E+00  0.00000000E+00
  0.00000000E+00  0.00000000E+00  0.00000000E+00
  0.00000000E+00  0.00000000E+00  0.00000000E+00
  0.00000000E+00  0.00000000E+00  0.00000000E+00
  0.00000000E+00  0.00000000E+00  0.00000000E+00
  0.00000000E+00  0.00000000E+00  0.00000000E+00
  0.00000000E+00  0.00000000E+00  0.00000000E+00
  0.00000000E+00  0.00000000E+00  0.00000000E+00
  0.00000000E+00  0.00000000E+00  0.00000000E+00
  0.00000000E+00  0.00000000E+00  0.00000000E+00
  0.00000000E+00  0.00000000E+00  0.00000000E+00
  0.00000000E+00  0.00000000E+00  0.00000000E+00
  0.00000000E+00  0.00000000E+00  0.00000000E+00
  0.00000000E+00  0.00000000E+00  0.00000000E+00
  0.00000000E+00  0.00000000E+00  0.00000000E+00
  0.00000000E+00  0.00000000E+00  0.00000000E+00
  0.00000000E+00  0.00000000E+00  0.00000000E+00
  0.00000000E+00  0.00000000E+00  0.00000000E+00
  0.00000000E+00  0.00000000E+00  0.00000000E+00
  0.00000000E+00  0.00000000E+00  0.00000000E+00
  0.00000000E+00  0.00000000E+00  0.00000000E+00
  0.00000000E+00  0.00000000E+00  0.00000000E+00
  0.00000000E+00  0.00000000E+00  0.00000000E+00
  0.00000000E+00  0.00000000E+00  0.00000000E+00
  0.00000000E+00  0.00000000E+00  0.00000000E+00
  0.00000000E+00  0.00000000E+00  0.00000000E+00
  0.00000000E+00  0.00000000E+00  0.00000000E+00
  0.00000000E+00  0.00000000E+00  0.00000000E+00
  0.00000000E+00  0.00000000E+00  0.00000000E+00
  0.00000000E+00  0.00000000E+00  0.00000000E+00
  0.00000000E+00  0.00000000E+00  0.00000000E+00
  0.00000000E+00  0.00000000E+00  0.00000000E+00
  0.00000000E+00  0.00000000E+00  0.00000000E+00
  0.00000000E+00  0.00000000E+00  0.00000000E+00
  0.00000000E+00  0.00000000E+00  0.00000000E+00
  0.00000000E+00  0.00000000E+00  0.00000000E+00
  0.00000000E+00  0.00000000E+00  0.00000000E+00
  0.00000000E+00  0.00000000E+00  0.00000000E+00
  0.00000000E+00  0.00000000E+00  0.00000000E+00
  0.00000000E+00  0.00000000E+00  0.00000000E+00
  0.00000000E+00  0.00000000E+00  0.00000000E+00
  0.00000000E+00  0.00000000E+00  0.00000000E+00
  0.00000000E+00  0.00000000E+00  0.00000000E+00
  0.00000000E+00  0.00000000E+00  0.00000000E+00
  0.00000000E+00  0.00000000E+00  0.00000000E+00
  0.00000000E+00  0.00000000E+00  0.00000000E+00
  0.00000000E+00  0.00000000E+00  0.00000000E+00
  0.00000000E+00  0.00000000E+00  0.00000000E+00
  0.00000000E+00  0.00000000E+00  0.00000000E+00
  0.00000000E+00  0.00000000E+00  0.00000000E+00
  0.00000000E+00  0.00000000E+00  0.00000000E+00
  0.00000000E+00  0.00000000E+00  0.00000000E+00
  0.00000000E+00  0.00000000E+00  0.00000000E+00
  0.00000000E+00  0.00000000E+00  0.00000000E+00
  0.00000000E+00  0.00000000E+00  0.00000000E+00
  0.00000000E+00  0.00000000E+00  0.00000000E+00
  0.00000000E+00  0.00000000E+00  0.00000000E+00
  0.00000000E+00  0.00000000E+00  0.00000000E+00
  0.00000000E+00  0.00000000E+00  0.00000000E+00
  0.00000000E+00  0.00000000E+00  0.00000000E+00
  0.00000000E+00  0.00000000E+00  0.00000000E+00
  0.00000000E+00  0.00000000E+00  0.00000000E+00
  0.00000000E+00  0.00000000E+00  0.00000000E+00
  0.00000000E+00  0.00000000E+00  0.00000000E+00
  0.00000000E+00  0.00000000E+00  0.00000000E+00
  0.00000000E+00  0.00000000E+00  0.00000000E+00
  0.00000000E+00  0.00000000E+00  0.00000000E+00
