4HSiC                                   
   1.00000000000000     
    18.4054279327000003    0.0000000000000000    0.0000000000000000
     0.0000000000000000   21.2527599334999984    0.0000000000000000
     0.0000000000000000    0.0000000000000000   20.0755977630999993
   Si   C 
   383   383
Direct
  0.0833300330241429  0.0416526852592076  0.2189185433351121
  0.0833169588892964  0.0416475945763427  0.7189358243809861
  0.0833515430989434  0.5416571639603275  0.2189303001375091
  0.0832209216911916  0.5416093591472387  0.7189054278237672
  0.5833276136752710  0.0416660821760418  0.2189074837121295
  0.5833572901621927  0.0417552808722021  0.7189351255343311
  0.5831734943912763  0.5417411690371027  0.2184534312543166
  0.5840253274748440  0.5413060163853034  0.7185240103758468
  0.0833380068764431  0.2916487676817184  0.2188941254172168
  0.0833301466666125  0.2916718371979520  0.7189642534258163
  0.0833296618787638  0.7916687151091674  0.2189113800011721
  0.0832742984899062  0.7915783469589263  0.7189242204583300
  0.5833271064219625  0.2915670788998742  0.2188465019613337
  0.5833986418250101  0.2922353319665260  0.7187423121055373
  0.5833187699534944  0.7916866772256620  0.2189005676573367
  0.5833721749626888  0.7916247273520440  0.7189584084960030
  0.2500033029758598  0.0416526852592076  0.2189185433351121
  0.2500163771107062  0.0416475945763427  0.7189358243809861
  0.2499817929010592  0.5416571639603275  0.2189303001375091
  0.2501124143088109  0.5416093591472387  0.7189054278237672
  0.7500056993247262  0.0416660821760418  0.2189074837121295
  0.7499760228378044  0.0417552808722021  0.7189351255343311
  0.7501598186087208  0.5417411690371027  0.2184534312543166
  0.7493079855251531  0.5413060163853034  0.7185240103758468
  0.2499953291235595  0.2916487676817184  0.2188941254172168
  0.2500031893333901  0.2916718371979520  0.7189642534258163
  0.2500036741212389  0.7916687151091674  0.2189113800011721
  0.2500590375100963  0.7915783469589263  0.7189242204583300
  0.7500062065780346  0.2915670788998742  0.2188465019613337
  0.7499346711749870  0.2922353319665260  0.7187423121055373
  0.7500145430465027  0.7916866772256620  0.2189005676573367
  0.7499611380373084  0.7916247273520440  0.7189584084960030
  0.4166661112287238  0.0416706284177292  0.2189201869904543
  0.4166956248830054  0.0417066837424866  0.7189287473408401
  0.4165680479440507  0.5417017025746653  0.2188503109856215
  0.4172519266041254  0.5414241958383462  0.7187505644143475
  0.9166671727712745  0.0416706284177292  0.2189201869904543
  0.9166376591169930  0.0417066837424866  0.7189287473408401
  0.9167652360559478  0.5417017025746653  0.2188503109856215
  0.9160813573958729  0.5414241958383462  0.7187505644143475
  0.4166532881797754  0.2916346037259899  0.2188955243266886
  0.4166883040962351  0.2917094015537464  0.7189607327372655
  0.4166637012901499  0.7916697173221564  0.2189291454018364
  0.4168050216231491  0.7915548276334852  0.7188970490757893
  0.9166799958202227  0.2916346037259899  0.2188955243266886
  0.9166449799037629  0.2917094015537464  0.7189607327372655
  0.9166695827098484  0.7916697173221564  0.2189291454018364
  0.9165282623768493  0.7915548276334852  0.7188970490757893
  0.0000046461393742  0.1666588524857449  0.2189136359419245
 -0.0000128716577006  0.1666805191025648  0.7189435397193645
  0.0000475669895972  0.6666879238530695  0.2188905136094629
 -0.0002308481372630  0.6665214669492465  0.7188783010117074
  0.4999942848503278  0.1666547922613126  0.2189265583102580
  0.5000419763071932  0.1668222280362982  0.7189013182833152
  0.4999135549927009  0.6667125981119684  0.2188511837658749
  0.5005357498264866  0.6663270159907115  0.7187377956368657
  0.0000280111428444  0.4166589504579176  0.2188947848596018
 -0.0000482069169995  0.4166542522965154  0.7189650039798240
 -0.0000101795786263  0.9166603458982235  0.2189244985986849
 -0.0000466650041170  0.9166308264017716  0.7189227975645700
  0.4999538323648007  0.4166361645309498  0.2188068050435275
  0.5001869506558764  0.4167590909672113  0.7191737892602625
  0.5000037575493795  0.9166648656600760  0.2189150810504780
  0.5000245097883962  0.9166753093770076  0.7189381711823529
  0.1666666719999981  0.1666477521642700  0.2189087155577078
  0.1666666719999981  0.1666638163015733  0.7189490497370381
  0.1666666719999981  0.6666582918393974  0.2189072199850703
  0.1666666719999981  0.6665982042362707  0.7189215039864343
  0.6666666870000029  0.1666118730719353  0.2188904001130177
  0.6666666870000029  0.1669318438480084  0.7188804122371096
  0.6666666870000029  0.6667103423408480  0.2188118360521885
  0.6666666870000029  0.6664647871943982  0.7191723473678936
  0.1666666719999981  0.4166478319158255  0.2189117227691892
  0.1666666719999981  0.4166618018907284  0.7189497748711428
  0.1666666719999981  0.9166640367458296  0.2189143765937210
  0.1666666719999981  0.9166072398486591  0.7189300894785109
  0.6666666870000029  0.4164985703040076  0.2184501549186575
  0.6666666870000029  0.4173713091171482  0.7185555065159509
  0.6666666870000029  0.9166721082734336  0.2188996045155922
  0.6666666870000029  0.9166842515631688  0.7189545226537579
  0.3333286968606253  0.1666588524857449  0.2189136359419245
  0.3333462146577003  0.1666805191025648  0.7189435397193645
  0.3332857760104025  0.6666879238530695  0.2188905136094629
  0.3335641911372625  0.6665214669492465  0.7188783010117074
  0.8333390881496742  0.1666547922613126  0.2189265583102580
  0.8332913966928089  0.1668222280362982  0.7189013182833152
  0.8334198180073012  0.6667125981119684  0.2188511837658749
  0.8327976231735155  0.6663270159907115  0.7187377956368657
  0.3333053318571553  0.4166589504579176  0.2188947848596018
  0.3333815499169992  0.4166542522965154  0.7189650039798240
  0.3333435225786258  0.9166603458982235  0.2189244985986849
  0.3333800080041165  0.9166308264017716  0.7189227975645700
  0.8333795406352016  0.4166361645309498  0.2188068050435275
  0.8331464223441257  0.4167590909672113  0.7191737892602625
  0.8333296154506228  0.9166648656600760  0.2189150810504780
  0.8333088632116059  0.9166753093770076  0.7189381711823529
  0.0832819219982112  0.2083966812870047  0.4689400464574583
  0.0833182263899756  0.2083494340808038  0.9688923073854249
  0.0832803544282120  0.7082857212351737  0.4689601133698174
  0.0833165305801947  0.7083273820899941  0.9688688819591609
  0.5834419207367743  0.2085187210097406  0.4689768749605577
  0.5833549812769626  0.2083736894771709  0.9688240302982660
  0.5839777286414345  0.7076661516259056  0.4688664957652419
  0.5833374352238181  0.7083643059500397  0.9689124155458686
  0.0830684202600829  0.4582736412453592  0.4689041839690861
  0.0833194903890689  0.4583605742092479  0.9688474822453348
  0.0832822002682966  0.9583458416015449  0.4689371203130328
  0.0833278687014078  0.9583363403397380  0.9689001385585034
  0.5843501687423694  0.4588807641423304  0.4673041573875274
  0.5833162745295957  0.4583309245766468  0.9690204785456361
  0.5833670945941828  0.9582978999976892  0.4689451514185645
  0.5833325703473131  0.9583245161191184  0.9688871593484895
  0.2500514140017914  0.2083966812870047  0.4689400464574583
  0.2500151096100272  0.2083494340808038  0.9688923073854249
  0.2500529815717907  0.7082857212351737  0.4689601133698174
  0.2500168054198079  0.7083273820899941  0.9688688819591609
  0.7498913922632229  0.2085187210097406  0.4689768749605577
  0.7499783317230345  0.2083736894771709  0.9688240302982660
  0.7493555843585626  0.7076661516259056  0.4688664957652419
  0.7499958777761790  0.7083643059500397  0.9689124155458686
  0.2502649157399197  0.4582736412453592  0.4689041839690861
  0.2500138456109337  0.4583605742092479  0.9688474822453348
  0.2500511357317060  0.9583458416015449  0.4689371203130328
  0.2500054672985947  0.9583363403397380  0.9689001385585034
  0.7489831442576277  0.4588807641423304  0.4673041573875274
  0.7500170384704015  0.4583309245766468  0.9690204785456361
  0.7499662184058143  0.9582978999976892  0.4689451514185645
  0.7500007426526840  0.9583245161191184  0.9688871593484895
  0.4168622391779220  0.2086938891135018  0.4689180825847640
  0.4166982984890384  0.2083561227641555  0.9688604811589734
  0.4167873175865784  0.7081701469385224  0.4689773146266659
  0.4166906107677426  0.7083058238234688  0.9688244014711370
  0.9164710448220761  0.2086938891135018  0.4689180825847640
  0.9166349855109598  0.2083561227641555  0.9688604811589734
  0.9165459664134200  0.7081701469385224  0.4689773146266659
  0.9166426732322559  0.7083058238234688  0.9688244014711370
  0.4175864359295837  0.4581721714016734  0.4688426816593278
  0.4166386414732922  0.4583241668547617  0.9689127853736708
  0.4167924292183993  0.9582425411850736  0.4689411851823848
  0.4166742535941010  0.9583259312480288  0.9688876702354100
  0.9157468480704147  0.4581721714016734  0.4688426816593278
  0.9166946425267062  0.4583241668547617  0.9689127853736708
  0.9165408547815992  0.9582425411850736  0.4689411851823848
  0.9166590304058971  0.9583259312480288  0.9688876702354100
 -0.0001211606879584  0.0834342052287287  0.4689362429883012
 -0.0000165303444305  0.0833473719821464  0.9688907179971845
 -0.0001792101979780  0.5833402539467876  0.4689800915194633
 -0.0000400674842870  0.5833382339755812  0.9688206913984692
  0.5000720290942776  0.0834103094023644  0.4689520302686743
  0.5000142011319737  0.0833549697747790  0.9688752169884252
  0.5000031530982083  0.5833430222592179  0.4689350726932709
  0.5000063502725162  0.5833359812531177  0.9688848319959809
 -0.0001490681564569  0.3334337454362349  0.4689596573798036
 -0.0000097144867219  0.3333477862187625  0.9688859870891273
 -0.0000742282292861  0.8332470523734687  0.4689489905266367
 -0.0000129279634867  0.8333186920916125  0.9688759341426948
  0.5003477874687192  0.3341577576796818  0.4688579079877921
  0.4999723622428123  0.3333299544439493  0.9689132924244724
  0.5002669376085620  0.8330244588159996  0.4689185274941772
  0.5000017997694207  0.8333069366594694  0.9688597921911215
  0.1666666719999981  0.0833708725696530  0.4689356860965218
  0.1666666719999981  0.0833407990771320  0.9689035481373731
  0.1666666719999981  0.5833353313979159  0.4689652171438508
  0.1666666719999981  0.5833408412160815  0.9688475990338288
  0.6666666870000029  0.0834070958357595  0.4689547668486502
  0.6666666870000029  0.0833556271197995  0.9688720414315902
  0.6666666870000029  0.5822638418666515  0.4673221907989912
  0.6666666870000029  0.5833573146291861  0.9690187180442716
  0.1666666719999981  0.3333676119237469  0.4689411834345975
  0.1666666719999981  0.3333608209274442  0.9688824911518191
  0.1666666719999981  0.8333188368641440  0.4689454673599280
  0.1666666719999981  0.8333334487208259  0.9688936936526145
  0.6666666870000029  0.3333631387456009  0.4689317260231503
  0.6666666870000029  0.3333465465749895  0.9688843832593023
  0.6666666870000029  0.8331609587414749  0.4689665339520555
  0.6666666870000029  0.8333259532089867  0.9688856285111890
  0.3334545036879580  0.0834342052287287  0.4689362429883012
  0.3333498733444301  0.0833473719821464  0.9688907179971845
  0.3335125531979777  0.5833402539467876  0.4689800915194633
  0.3333734104842866  0.5833382339755812  0.9688206913984692
  0.8332613439057245  0.0834103094023644  0.4689520302686743
  0.8333191718680284  0.0833549697747790  0.9688752169884252
  0.8333302199017936  0.5833430222592179  0.4689350726932709
  0.8333270227274859  0.5833359812531177  0.9688848319959809
  0.3334824111564567  0.3334337454362349  0.4689596573798036
  0.3333430574867214  0.3333477862187625  0.9688859870891273
  0.3334075712292857  0.8332470523734687  0.4689489905266367
  0.3333462709634863  0.8333186920916125  0.9688759341426948
  0.8329855855312829  0.3341577576796818  0.4688579079877921
  0.8333610107571897  0.3333299544439493  0.9689132924244724
  0.8330664353914401  0.8330244588159996  0.4689185274941772
  0.8333315732305814  0.8333069366594694  0.9688597921911215
 -0.0000049346783777 -0.0000065996789707  0.0939445352858914
 -0.0000351287286477 -0.0000084131089606  0.5939856697813487
  0.0000245002838915  0.4999951275159265  0.0939213886563607
 -0.0001879448789543  0.4998571246889986  0.5940746242618673
  0.4999972786855630  0.0000003451480029  0.0939345571912151
  0.5000308582850473  0.0000662629320117  0.5940064393672623
  0.4999238799310393  0.4999899042149570  0.0938544330229694
  0.5019723890849188  0.4996631081799884  0.5946939068452620
 -0.0000074542161559  0.2499912634278225  0.0939222818844147
  0.0000337354971788  0.2499967606407654  0.5940454538486348
 -0.0000137846027108  0.7499909965413748  0.0939176406695543
 -0.0001436564102855  0.7498749165429810  0.5940287582986000
  0.4999924810575622  0.2499764538237034  0.0939229620617433
  0.4999830655974796  0.2502250975714145  0.5940641085501616
  0.4999885852390747  0.7500082032615151  0.0939254334120501
  0.5002358484457056  0.7499007205311591  0.5940652069903468
  0.1666666719999981 -0.0000094825183946  0.0939469636731406
  0.1666666719999981 -0.0000543626315274  0.5939896590967971
  0.1666666719999981  0.4999894444210179  0.0939176375681451
  0.1666666719999981  0.4999297914720947  0.5940240121632648
  0.6666666870000029  0.0000020148303223  0.0939261938050371
  0.6666666870000029  0.0001001989876837  0.5940127755860566
  0.6666666870000029  0.4999933143413012  0.0938663867653904
  0.1666666719999981  0.2499872239847052  0.0939259031137053
  0.1666666719999981  0.2499588653369800  0.5940127219083957
  0.1666666719999981  0.7499906691575059  0.0939267242607561
  0.1666666719999981  0.7499284305083386  0.5940105744595315
  0.6666666870000029  0.2499761199080330  0.0939030047932590
  0.6666666870000029  0.2506098531727478  0.5942178940652693
  0.6666666870000029  0.7500100098793661  0.0939448958990821
  0.6666666870000029  0.7499380863209252  0.5942811425361919
  0.3333382776783773 -0.0000065996789707  0.0939445352858914
  0.3333684717286473 -0.0000084131089606  0.5939856697813487
  0.3333088427161081  0.4999951275159265  0.0939213886563607
  0.3335212878789539  0.4998571246889986  0.5940746242618673
  0.8333360943144390  0.0000003451480029  0.0939345571912151
  0.8333025147149549  0.0000662629320117  0.5940064393672623
  0.8334094930689628  0.4999899042149570  0.0938544330229694
  0.8313609839150833  0.4996631081799884  0.5946939068452620
  0.3333407972161554  0.2499912634278225  0.0939222818844147
  0.3332996075028209  0.2499967606407654  0.5940454538486348
  0.3333471276027106  0.7499909965413748  0.0939176406695543
  0.3334769994102851  0.7498749165429810  0.5940287582986000
  0.8333408919424401  0.2499764538237034  0.0939229620617433
  0.8333503074025227  0.2502250975714145  0.5940641085501616
  0.8333447877609275  0.7500082032615151  0.0939254334120501
  0.8330975245542965  0.7499007205311591  0.5940652069903468
  0.0833330837997487  0.1249890910237332  0.0939401990565557
  0.0833339418461013  0.1249733843514915  0.5939993818645042
  0.0833264204102749  0.6249811991605728  0.0939112609399119
  0.0832105908669263  0.6249320883148791  0.5940364756721199
  0.5833292262122138  0.1250071604885521  0.0939165728798713
  0.5833686410915007  0.1251860149732421  0.5940296986554725
  0.5832991286345471  0.6250524220929404  0.0938548636267190
  0.5846225528754320  0.6236633805533948  0.5947039761927765
  0.0833276924205594  0.3749958564016071  0.0939163114983051
  0.0833456026395545  0.3749522399994132  0.5940524903650625
  0.0833282193842337  0.8749932722319441  0.0939413983121419
  0.0832948512701141  0.8749294120543929  0.5939952549607346
  0.5832924248578407  0.3749372839468622  0.0938537338963112
  0.5839742477862022  0.3766255155702645  0.5946830851810352
  0.5833308612202196  0.8749906604068323  0.0939236088576355
  0.5833654320429126  0.8750471603188046  0.5940451211580438
  0.2500002522002539  0.1249890910237332  0.0939401990565557
  0.2499993941539013  0.1249733843514915  0.5939993818645042
  0.2500069155897277  0.6249811991605728  0.0939112609399119
  0.2501227451330763  0.6249320883148791  0.5940364756721199
  0.7500040867877833  0.1250071604885521  0.0939165728798713
  0.7499646719084965  0.1251860149732421  0.5940296986554725
  0.7500341843654500  0.6250524220929404  0.0938548636267190
  0.7487107601245652  0.6236633805533948  0.5947039761927765
  0.2500056435794431  0.3749958564016071  0.0939163114983051
  0.2499877333604481  0.3749522399994132  0.5940524903650625
  0.2500051166157689  0.8749932722319441  0.0939413983121419
  0.2500384847298885  0.8749294120543929  0.5939952549607346
  0.7500408881421564  0.3749372839468622  0.0938537338963112
  0.7493590652137949  0.3766255155702645  0.5946830851810352
  0.7500024517797775  0.8749906604068323  0.0939236088576355
  0.7499678809570846  0.8750471603188046  0.5940451211580438
  0.4166680000308240  0.1249993545992769  0.0939328545301879
  0.4166789521698890  0.1250603320493950  0.5940051909500635
  0.4166494862145740  0.6250019498123643  0.0939041064573082
  0.4172547499508159  0.6247025384912032  0.5942216641143839
  0.9166652839691742  0.1249993545992769  0.0939328545301879
  0.9166543318301092  0.1250603320493950  0.5940051909500635
  0.9166837977854242  0.6250019498123643  0.0939041064573082
  0.9160785340491825  0.6247025384912032  0.5942216641143839
  0.4166523989841358  0.3749845149184206  0.0939427261727083
  0.4167094787966232  0.3750152255651050  0.5942766052014558
  0.4166721151861711  0.8749909427655261  0.0939340812006074
  0.4167386840604154  0.8749742460724673  0.5940013148551057
  0.9166808850158629  0.3749845149184206  0.0939427261727083
  0.9166238052033752  0.3750152255651050  0.5942766052014558
  0.9166611688138274  0.8749909427655261  0.0939340812006074
  0.9165945999395830  0.8749742460724673  0.5940013148551057
 -0.0000305347257848  0.0000079066224533  0.3439772063470212
 -0.0000234979619180  0.0000059811098946  0.8439394417493569
 -0.0000248526323333  0.5000504518368467  0.3440007186843594
 -0.0000963989239227  0.4999915945303463  0.8438588153723472
  0.5000124946254169 -0.0000109700812590  0.3439683481681433
  0.5000163030146085  0.0000224363293292  0.8439339200027363
  0.4997914712732583  0.5003400649895677  0.3436732346519903
  0.5000770163975702  0.4999119921401728  0.8440375123688457
 -0.0000268696793579  0.2500378690356334  0.3439498628720240
 -0.0000272529739466  0.2500243961433450  0.8439450216873127
  0.0000259968787268  0.7500244861919151  0.3439680149978090
 -0.0000618006402333  0.7499483676114895  0.8438933634819696
  0.5000722933433588  0.2500209142413022  0.3439949093076659
  0.5000456073680294  0.2501048947252048  0.8438635631837792
  0.4999843382833739  0.7499440436969811  0.3439987633220223
  0.5000742444719321  0.7499251981068397  0.8438616877757924
  0.1666666719999981  0.0000161090991391  0.3439601507285732
  0.1666666719999981 -0.0000024118434077  0.8439523956544482
  0.1666666719999981  0.5000128433823486  0.3439937420264239
  0.1666666719999981  0.5000147789825838  0.8438927324182228
  0.6666666870000029 -0.0000086498425215  0.3439662037421841
  0.6666666870000029  0.0000181756261858  0.8439386250757382
  0.6666666870000029  0.4999983832028587  0.3421952450704728
  0.6666666870000029  0.5000100888083026  0.8443468599494994
  0.1666666719999981  0.2500122509605881  0.3439615302500915
  0.1666666719999981  0.2500259919906552  0.8439560455621706
  0.1666666719999981  0.7500137427933112  0.3439717103078601
  0.1666666719999981  0.7499768181327430  0.8439232050075667
  0.6666666870000029  0.2498261143536294  0.3439052343328597
  0.6666666870000029  0.2501894580247739  0.8437796519813674
  0.6666666870000029  0.7499292281844046  0.3438817385586516
  0.6666666870000029  0.7499899272721040  0.8439455883498240
  0.3333638777257845  0.0000079066224533  0.3439772063470212
  0.3333568409619175  0.0000059811098946  0.8439394417493569
  0.3333581956323331  0.5000504518368467  0.3440007186843594
  0.3334297419239224  0.4999915945303463  0.8438588153723472
  0.8333208783745853 -0.0000109700812590  0.3439683481681433
  0.8333170699853936  0.0000224363293292  0.8439339200027363
  0.8335419017267437  0.5003400649895677  0.3436732346519903
  0.8332563566024319  0.4999119921401728  0.8440375123688457
  0.3333602126793574  0.2500378690356334  0.3439498628720240
  0.3333605959739461  0.2500243961433450  0.8439450216873127
  0.3333073461212728  0.7500244861919151  0.3439680149978090
  0.3333951436402328  0.7499483676114895  0.8438933634819696
  0.8332610796566433  0.2500209142413022  0.3439949093076659
  0.8332877656319727  0.2501048947252048  0.8438635631837792
  0.8333490347166282  0.7499440436969811  0.3439987633220223
  0.8332591285280700  0.7499251981068397  0.8438616877757924
  0.0833150073945709  0.1250175434538449  0.3439632658973933
  0.0833214327867350  0.1250154226826805  0.8439507884253965
  0.0833651200318027  0.6250210838945340  0.3439726997320726
  0.0832784769795791  0.6249796327517868  0.8438823035963765
  0.5833331956350399  0.1249738661316528  0.3439662011905700
  0.5833574187770295  0.1250834924135941  0.8438959138783373
  0.5828994141417061  0.6249862855763832  0.3436803672820166
  0.5834650084592863  0.6249924756949932  0.8440337808514193
  0.0833103195131125  0.3750023970098252  0.3439488035045932
  0.0833189524876449  0.3750260038997663  0.8439411451919299
  0.0833236589955657  0.8750178852773627  0.3439685838679309
  0.0833122799876276  0.8749812143066974  0.8439353302350462
  0.5835662158822956  0.3746845005199238  0.3436685747830021
  0.5832787877187899  0.3751157421910746  0.8440384539469602
  0.5833560116948722  0.8749670408284370  0.3439553466736610
  0.5833352171329268  0.8749823163920556  0.8439411310605793
  0.2500183286054317  0.1250175434538449  0.3439632658973933
  0.2500119032132677  0.1250154226826805  0.8439507884253965
  0.2499682159681999  0.6250210838945340  0.3439726997320726
  0.2500548590204236  0.6249796327517868  0.8438823035963765
  0.7500001173649572  0.1249738661316528  0.3439662011905700
  0.7499758942229676  0.1250834924135941  0.8438959138783373
  0.7504338988582910  0.6249862855763832  0.3436803672820166
  0.7498683045407109  0.6249924756949932  0.8440337808514193
  0.2500230164868901  0.3750023970098252  0.3439488035045932
  0.2500143835123578  0.3750260038997663  0.8439411451919299
  0.2500096770044369  0.8750178852773627  0.3439685838679309
  0.2500210560123750  0.8749812143066974  0.8439353302350462
  0.7497670971177015  0.3746845005199238  0.3436685747830021
  0.7500545252812072  0.3751157421910746  0.8440384539469602
  0.7499773013051250  0.8749670408284370  0.3439553466736610
  0.7499980958670703  0.8749823163920556  0.8439411310605793
  0.4167003134149108  0.1250377031432957  0.3439775925957853
  0.4167008549607741  0.1250462535895539  0.8439222345058434
  0.4164893590803447  0.6250974831201510  0.3439058362470315
  0.4168410524769701  0.6249165979265309  0.8437797457521439
  0.9166329705850872  0.1250377031432957  0.3439775925957853
  0.9166324290392240  0.1250462535895539  0.8439222345058434
  0.9168439249196533  0.6250974831201510  0.3439058362470315
  0.9164922315230278  0.6249165979265309  0.8437797457521439
  0.4167385431147075  0.3750405894750611  0.3438712024454246
  0.4166811217242245  0.3750159898501455  0.8439485063752113
  0.4166912285613061  0.8749650366520737  0.3439790363328054
  0.4166926572994452  0.8749673980791974  0.8439189248509062
  0.9165947408852907  0.3750405894750611  0.3438712024454246
  0.9166521622757737  0.3750159898501455  0.8439485063752113
  0.9166420554386923  0.8749650366520737  0.3439790363328054
  0.9166406267005531  0.8749673980791974  0.8439189248509062
  0.0833318913804647  0.0416499973642176  0.1249127643218940
  0.0833368071984705  0.0416199767636543  0.6248936401328549
  0.0833391832296691  0.5416447502895063  0.1249477794298243
  0.0833245732993998  0.5415810604561813  0.6248231178954811
  0.5833337804691552  0.0416689560025857  0.1249051152115284
  0.5833453636447149  0.0417858921096402  0.6248879256113669
  0.5832721375373862  0.5416836198390035  0.1247295767744910
  0.5788733112230365  0.5438574439503174  0.6274177361342692
  0.0833276863915926  0.2916544489908069  0.1249039827839167
  0.0833846226142998  0.2916082903844900  0.6249111565245047
  0.0833229514199760  0.7916439362020343  0.1249069098549004
  0.0832753512551260  0.7915707842286056  0.6248766565032430
  0.5833294385637051  0.2916377639026385  0.1249361179789599
  0.5829550229614495  0.2919471326851167  0.6245851188899791
  0.5833303721598307  0.7916488548262732  0.1249415667673072
  0.5833828323702240  0.7918117104323584  0.6248837147321108
  0.2500014446195379  0.0416499973642176  0.1249127643218940
  0.2499965288015321  0.0416199767636543  0.6248936401328549
  0.2499941527703334  0.5416447502895063  0.1249477794298243
  0.2500087627006027  0.5415810604561813  0.6248231178954811
  0.7499995325308420  0.0416689560025857  0.1249051152115284
  0.7499879493552822  0.0417858921096402  0.6248879256113669
  0.7500611754626110  0.5416836198390035  0.1247295767744910
  0.7544600017769606  0.5438574439503174  0.6274177361342692
  0.2500056496084100  0.2916544489908069  0.1249039827839167
  0.2499487133857028  0.2916082903844900  0.6249111565245047
  0.2500103845800266  0.7916439362020343  0.1249069098549004
  0.2500579847448765  0.7915707842286056  0.6248766565032430
  0.7500038744362920  0.2916377639026385  0.1249361179789599
  0.7503782900385476  0.2919471326851167  0.6245851188899791
  0.7500029408401664  0.7916488548262732  0.1249415667673072
  0.7499504806297731  0.7918117104323584  0.6248837147321108
  0.4166693307309747  0.0416653248516110  0.1249161191234075
  0.4166641992749598  0.0416940189341749  0.6248823248126969
  0.4166467188061737  0.5416569715051996  0.1249392089473745
  0.4167546415446527  0.5412344705679279  0.6245891395928133
  0.9166639532690237  0.0416653248516110  0.1249161191234075
  0.9166690847250382  0.0416940189341749  0.6248823248126969
  0.9166865651938245  0.5416569715051996  0.1249392089473745
  0.9165786424553455  0.5412344705679279  0.6245891395928133
  0.4166740834000207  0.2916528372014952  0.1249389554451940
  0.4165022901863020  0.2916146209719210  0.6248855958510159
  0.4166748385393275  0.7916500220237929  0.1249438373622382
  0.4167645793245772  0.7916654990410377  0.6248238689583747
  0.9166592005999779  0.2916528372014952  0.1249389554451940
  0.9168309938136959  0.2916146209719210  0.6248855958510159
  0.9166584454606711  0.7916500220237929  0.1249438373622382
  0.9165687046754210  0.7916654990410377  0.6248238689583747
 -0.0000035732603693  0.1666581966387109  0.1249150957940654
  0.0000357586834569  0.1666382007331960  0.6248973806614969
  0.0000015715286365  0.6666511010398668  0.1249209869921037
 -0.0002438080185200  0.6665066961347023  0.6248211956367857
  0.4999991800609269  0.1666617117194039  0.1249420623640805
  0.4999486230139671  0.1667396768415230  0.6248296979801488
  0.4999871604850055  0.6666631246566342  0.1249397065937132
  0.5004708769889842  0.6668040988326074  0.6245801136045047
 -0.0000042907593230  0.4166576428687933  0.1249402883278024
  0.0001167698954966  0.4165394316166217  0.6248825200702046
 -0.0000107385497008  0.9166476134314518  0.1249172641174256
 -0.0000296679800722  0.9166420165901878  0.6248745494495653
  0.5000128941184437  0.4166592202512206  0.1249208106207444
  0.4996151650878859  0.4164641155024991  0.6250915298869901
  0.5000044908690492  0.9166515022029901  0.1249153716964669
  0.5000176618006036  0.9167293734193546  0.6248893570870683
  0.1666666719999981  0.1666507553100254  0.1249090774205069
  0.1666666719999981  0.1666142720890846  0.6249013859872532
  0.1666666719999981  0.6666399734720698  0.1249031023741232
  0.1666666719999981  0.6665837592967163  0.6248682678521158
  0.6666666870000029  0.1666558784388447  0.1249198599575864
  0.6666666870000029  0.1669516592413922  0.6248284724336702
  0.6666666870000029  0.6666408848918781  0.1249234808693749
  0.6666666870000029  0.6670136007004097  0.6250993944646831
  0.1666666719999981  0.4166525876733753  0.1249199804623603
  0.1666666719999981  0.4166014956257348  0.6248868753871841
  0.1666666719999981  0.9166484591738007  0.1249103089754089
  0.1666666719999981  0.9165893643697460  0.6248880921477423
  0.6666666870000029  0.4165916133740362  0.1247272158029947
  0.6666666870000029  0.4121448785760027  0.6274440040095771
  0.6666666870000029  0.9166529235990594  0.1249054426601161
  0.6666666870000029  0.9167751990676704  0.6249053067428547
  0.3333369162603689  0.1666581966387109  0.1249150957940654
  0.3332975843165428  0.1666382007331960  0.6248973806614969
  0.3333317714713631  0.6666511010398668  0.1249209869921037
  0.3335771510185198  0.6665066961347023  0.6248211956367857
  0.8333341929390752  0.1666617117194039  0.1249420623640805
  0.8333847499860351  0.1667396768415230  0.6248296979801488
  0.8333462125149965  0.6666631246566342  0.1249397065937132
  0.8328624960110179  0.6668040988326074  0.6245801136045047
  0.3333376337593226  0.4166576428687933  0.1249402883278024
  0.3332165731045031  0.4165394316166217  0.6248825200702046
  0.3333440815497003  0.9166476134314518  0.1249172641174256
  0.3333630109800719  0.9166420165901878  0.6248745494495653
  0.8333204788815584  0.4166592202512206  0.1249208106207444
  0.8337182079121160  0.4164641155024991  0.6250915298869901
  0.8333288821309529  0.9166515022029901  0.1249153716964669
  0.8333157111993985  0.9167293734193546  0.6248893570870683
  0.0832934761072032  0.2083902396181633  0.3748978826178466
  0.0833215669749135  0.2083459586008773  0.8748837458221773
  0.0833207573811610  0.7083350956361019  0.3749120758023564
  0.0833131179797557  0.7083359174827222  0.8748511585688482
  0.5833552072380944  0.2083641428245358  0.3749248601007063
  0.5833703190316786  0.2084010005873708  0.8748199705679267
  0.5834448304374088  0.7080423344691965  0.3749304042019028